
Cone linearizations applied:  141

Root node processing (before b&c):
  Real time             =    0.02 sec. (10.67 ticks)
Sequential b&c:
  Real time             =    0.01 sec. (10.37 ticks)
                          ------------
Total (root+branch&cut) =    0.03 sec. (21.05 ticks)
Tried aggregator 2 times.
MIQCP Presolve eliminated 1321 rows and 1258 columns.
Aggregator did 284 substitutions.
Reduced MIQCP has 157 rows, 338 columns, and 548 nonzeros.
Reduced MIQCP has 64 binaries, 0 generals, 0 SOSs, and 0 indicators.
Reduced MIQCP has 10 quadratic constraints.
Presolve time = 0.00 sec. (1.57 ticks)
Probing time = 0.00 sec. (0.18 ticks)
MIP emphasis: balance optimality and feasibility.
MIP search method: dynamic search.
Parallel mode: none, using 1 thread.
Root relaxation solution time = 0.00 sec. (0.21 ticks)

        Nodes                                         Cuts/
   Node  Left     Objective  IInf  Best Integer    Best Bound    ItCnt     Gap

      0     0   -38990.5738     7                 -42044.0000       11         
      0     0   -32937.6303    10                    Cone: 10       33         
      0     0   -32250.1348    16                    Cone: 20       48         
      0     0   -32093.0826    21                    Cone: 30       63         
      0     0   -31978.3391    22                    Cone: 40       77         
      0     0   -31920.9069    24                    Cone: 50       90         
      0     0   -31888.2818    24                    Cone: 60      107         
      0     0   -31769.4040    26                   Cone: 168      291         
      0     0   -31769.4021    24                   Cone: 199      312         
      0     0   -31769.4011    26                   Cone: 229      329         
      0     0   -31769.4009    26                   Cone: 246      339         
      0     0   -31769.4006    26                   Cone: 250      351         
      0     0   -31769.4006    26                 -31769.4006      351         
*     0+    0                       -23007.0000   -31769.4006            38.09%
      0     0   -31501.8843    27   -23007.0000       Cuts: 8      409   36.92%
*     0+    0                       -23011.0000   -31501.8843            36.90%
      0     0   -31431.1736    27   -23011.0000      Cuts: 11      431   36.59%
*     0+    0                       -24257.0000   -31431.1736            29.58%
      0     0   -31399.4031    31   -24257.0000      Cuts: 13      443   29.44%
      0     0   -31364.9331    31   -24257.0000       Cuts: 6      460   29.30%
      0     0   -31324.5956    28   -24257.0000       Cuts: 9      468   29.14%
      0     0   -31315.3168    31   -24257.0000       Cuts: 3      476   29.10%
      0     0   -31296.7768    29   -24257.0000       Cuts: 5      489   29.02%
      0     0   -31266.2007    30   -24257.0000       Cuts: 9      503   28.90%
      0     0   -31256.6700    31   -24257.0000       Cuts: 3      513   28.86%
      0     0   -31242.4133    32   -24257.0000       Cuts: 4      527   28.80%
      0     0   -31238.4825    32   -24257.0000       Cuts: 4      538   28.78%
      0     0   -31166.1603    33   -24257.0000    MIRcuts: 3      658   28.48%
      0     0   -31121.6831    33   -24257.0000       Cuts: 8      717   28.30%
      0     0   -31068.9983    30   -24257.0000       Cuts: 4      744   28.08%
      0     0   -31002.1247    33   -24257.0000       Cuts: 3      756   27.81%
      0     0   -30979.2212    34   -24257.0000    MIRcuts: 2      766   27.71%
      0     0   -30973.3573    34   -24257.0000       Cuts: 9      778   27.69%
      0     0   -30948.7815    33   -24257.0000       Cuts: 8      798   27.59%
      0     0   -30937.0316    35   -24257.0000    MIRcuts: 1      809   27.54%
      0     0   -30925.9115    35   -24257.0000       Cuts: 4      815   27.49%
      0     0   -30814.0115    39   -24257.0000       Cuts: 2      937   27.03%
      0     0   -30797.5001    39   -24257.0000       Cuts: 2      994   26.96%
      0     2   -30797.5001    39   -24257.0000   -30797.3834      994   26.96%
Elapsed time = 1.94 sec. (1609.96 ticks, tree = 0.01 MB, solutions = 3)
*    20+   16                       -27239.0000   -30655.9217            12.54%
*    70+   50                       -28706.0000   -30622.5715             6.68%
    277   212   -30359.0418    24   -28706.0000   -30437.7634     6780    6.03%
*   300+  233                       -28717.0000   -30437.7634             5.99%
*   380+  299                       -28763.0000   -30399.8514             5.69%
*   500+  381                       -28872.0000   -30349.4054             5.12%
*   500+  343                       -29109.0000   -30349.4054             4.26%
    620   432   -29806.9635    24   -29109.0000   -30303.2735    14619    4.10%
    990   680        cutoff         -29109.0000   -30214.6377    23832    3.80%
*  1169   498      integral     0   -29489.0000   -30170.5875    28215    2.31%
   1488   620   -29829.1162    23   -29489.0000   -30091.0148    37331    2.04%
   1830   727   -29544.5443    24   -29489.0000   -30007.8334    46726    1.76%
   2182   799        cutoff         -29489.0000   -29919.2278    55927    1.46%
   2572   812        cutoff         -29489.0000   -29838.6244    65433    1.19%
   2967   758   -29546.6725    16   -29489.0000   -29767.6161    74451    0.94%
#SOLVERNAME# CPLEX_MISOCP
#SOLVER# CPLEX.CplexSolver(Any[(:CPX_PARAM_THREADS, 1), (:CPX_PARAM_TILIM, 3600.0), (:CPX_PARAM_SCRIND, 1), (:CPX_PARAM_EPINT, 1.0e-9), (:CPX_PARAM_EPRHS, 1.0e-8), (:CPX_PARAM_EPGAP, 1.0e-5)])
#INSTANCE# ck_n75_m10_o3_5.cbf.gz
#TIMELIMIT# 3600.0
#STATUS# Optimal
#OBJVAL# 29489.0
#OBJBOUND# 29489.26915371512
#NODECOUNT# 4322
#TIMESOLVER# 4.532523155212402
#TIMEALL# 4.603553056716919
#SOLUTION# [-0.0,1.0,1.0,1.0,1.0,1.0,1.0,1.0,-0.0,0.0,1.0,0.0,1.0000000000000007,-0.0,0.0,-0.0,0.9999999999999993,-0.0,-0.0,-0.0,1.0,1.0,1.0,1.0,0.9999999999999916,1.0000000000000084,-0.0,0.0,1.0,1.0,1.0,1.0,1.0,1.0,1.0,1.0,-0.0,0.0,-0.0,0.0,-0.0,1.0,-0.0,0.0,0.9999999999999997,1.0,1.0,2.9751863876009934e-16,-0.0,1.0,-0.0,-0.0,1.0,-0.0,-0.0,1.0,1.0,-0.0,1.0,0.9999999999999997,1.0,1.0,1.0,1.0,1.0,1.0,1.0,1.0,1.0,0.0,-3.3266322853454964e-16,1.0,1.0,1.0,1.0,0.0,0.0,25.0,7.0,0.0,0.0,0.0,82.0,0.0,0.0,0.0,0.0,0.0,0.0,0.0,0.0,0.0,0.0,0.0,0.0,0.0,0.0,0.0,0.0,0.0,104.99999999999912,2.000000000000017,0.0,0.0,0.0,0.0,0.0,0.0,1.0,0.0,0.0,0.0,0.0,0.0,0.0,0.0,0.0,0.0,0.0,0.0,0.0,0.0,0.0,0.0,0.0,0.0,0.0,0.0,3.0,0.0,0.0,0.0,0.0,0.0,0.0,0.0,0.0,4.0,0.0,0.0,0.0,0.0,0.0,188.0,0.0,0.0,0.0,0.0,0.0,0.0,60.0,282.99999999999966,0.0,93.0,62.0,0.0,0.0,0.0,40.0,0.0,0.0,0.0,0.0,0.0,0.0,0.0,0.0,0.0,0.0,0.0,0.0,0.0,0.0,0.0,0.0,0.0,0.0,0.0,0.0,0.0,0.0,0.0,0.0,0.0,0.0,0.0,0.0,0.0,0.0,0.0,0.0,0.0,0.0,0.0,0.0,0.0,37.999999999999986,0.0,0.0,2.8561789320969535e-14,0.0,0.0,0.0,0.0,0.0,0.0,0.0,0.0,0.0,0.0,0.0,0.0,0.0,0.0,0.0,0.0,0.0,0.0,0.0,0.0,26.0,0.0,0.0,0.0,0.0,68.0,0.0,203.0,0.0,0.0,0.0,0.0,0.0,0.0,0.0,0.0,0.0,0.0,0.0,0.0,54.000000000000036,0.0,0.0,0.0,0.0,0.0,0.0,0.0,0.0,65.0,0.0,0.0,0.0,0.0,0.0,0.0,0.0,0.0,0.0,0.0,0.0,36.0,0.0,0.0,0.0,0.0,0.0,0.0,0.0,0.0,0.0,0.0,0.0,0.0,0.0,1.1305708272883775e-14,0.0,0.0,0.0,0.0,0.0,0.0,0.0,0.0,0.0,0.0,0.0,0.0,0.0,0.0,30.0,100.0,0.0,0.0,0.0,0.0,0.0,0.0,-1.995979371207298e-15,0.0,0.0,0.0,0.0,197.0,0.0,0.0,0.0,0.0,0.0,0.0,0.0,3.0,0.0,0.0,0.0,0.0,0.0,0.0,0.0,0.0,0.0,0.0,0.0,0.0,0.0,0.0,0.0,0.0,0.0,0.0,0.0,0.0,0.0,0.0,0.0,0.0,0.0,0.0,0.0,0.0,0.0,0.0,0.0,0.0,0.0,0.0,0.0,0.0,0.0,0.0,0.0,0.0,0.0,27.0,0.0,0.0,0.0,0.0,0.0,93.0,0.0,0.0,0.0,0.0,0.0,0.0,0.0,46.0,0.0,0.0,0.0,1.0,0.0,0.0,0.0,0.0,198.0,26.0,0.0,261.0,0.0,0.0,0.0,0.0,5.0,0.0,0.0,0.0,0.0,0.0,0.0,0.0,0.0,0.0,0.0,0.0,0.0,0.0,0.0,0.0,47.0,0.0,0.0,0.0,0.0,0.0,0.0,0.0,0.0,0.0,27.0,7.0,0.0,0.0,0.0,0.0,0.0,0.0,0.0,0.0,0.0,0.0,0.0,0.0,0.0,0.0,0.0,5.057816858921689e-15,0.0,133.0,0.0,0.0,32.0,0.0,0.0,0.0,0.0,0.0,169.0,0.0,0.0,0.0,0.0,0.0,81.0,0.0,0.0,0.0,0.0,0.0,0.0,0.0,0.0,0.0,0.0,302.0,0.0,0.0,0.0,0.0,80.0,0.0,0.0,117.0,0.0,0.0,0.0,0.0,0.0,0.0,0.0,0.0,0.0,0.0,0.0,0.0,0.0,0.0,0.0,0.0,0.0,0.0,0.0,0.0,0.0,0.0,0.0,0.0,156.0,0.0,53.0,50.0,0.0,0.0,0.0,0.0,0.0,0.0,0.0,0.0,0.0,8.0,0.0,1.814863696436606e-14,0.0,2.0,0.0,0.0,0.0,0.0,0.0,0.0,0.0,0.0,0.0,26.99999999999999,87.0,0.0,0.0,0.0,95.0,0.0,0.0,0.0,88.0,0.0,0.0,0.0,0.0,0.0,0.0,287.9999999999999,0.0,0.0,0.0,0.0,0.0,0.0,0.0,170.0,0.0,0.0,3.0,0.0,100.00000000000007,0.0,0.0,0.0,35.99999999999998,0.0,0.0,0.0,0.0,0.0,0.0,0.0,0.0,0.0,0.0,0.0,0.0,0.0,0.0,0.0,0.0,0.0,0.0,0.0,0.0,0.0,0.0,0.0,0.0,0.0,0.0,0.0,0.0,0.0,0.0,0.0,0.0,0.0,0.0,0.0,0.0,0.0,0.0,0.0,0.0,0.0,0.0,0.0,0.0,0.0,0.0,0.0,0.0,0.0,0.0,0.0,14.0,0.0,0.0,0.0,0.0,0.0,0.0,226.0000000000001,0.0,0.0,0.0,0.0,1.0,0.0,0.0,0.0,0.0,0.0,0.0,0.0,0.0,0.0,0.0,0.0,0.0,0.0,0.0,0.0,0.0,0.0,0.0,0.0,0.0,0.0,0.0,0.0,0.0,0.0,0.0,0.0,0.0,94.0,0.0,0.0,0.0,0.0,0.0,0.0,0.0,0.0,0.0,0.0,0.0,0.0,0.0,0.0,0.0,0.0,0.0,0.0,0.0,0.0,0.0,0.0,0.0,0.0,52.0,0.0,0.0,0.0,0.0,0.0,0.0,0.0,0.0,0.0,0.0,0.0,0.0,0.0,0.0,0.0,0.0,129.0,0.0,0.0,0.0,0.0,0.0,0.0,0.0,0.0,0.0,0.0,0.0,0.0,0.0,0.0,0.0,0.0,0.0,0.0,0.0,0.0,0.0,1.0,0.0,0.0,0.0,0.0,0.0,0.0,0.0,0.0,0.0,0.0,0.0,0.0,0.0,0.0,0.0,0.0,0.0,0.0,0.0,0.0,0.0,0.0,0.0,148.0,0.0,2.9751863876009935e-15,0.0,97.0,0.0,0.0,0.0,0.0,0.0,0.0,4.0,0.0,0.0,189.99999999999994,0.0,0.0,0.0,0.0,0.0,0.0,0.0,0.0,0.0,0.0,0.0,0.0,0.0,5.0,0.0,263.0,0.0,0.0,0.0,0.0,0.0,0.0,0.0,0.0,0.0,0.0,0.0,0.0,0.0,0.0,0.0,0.0,0.0,0.0,0.0,0.0,0.0,0.0,0.0,0.0,0.0,0.0,0.0,0.0,0.0,0.0,0.0,0.0,0.0,0.0,0.0,0.0,0.0,0.0,0.0,0.0,0.0,0.0,0.0,0.0,0.0,0.0,0.0,0.0,0.0,0.0,0.0,0.0,5.0,0.0,0.0,0.0,0.0,0.0,0.0,0.0,0.0,0.0,0.0,0.0,0.0,0.0,0.0,0.0,0.0,0.0,0.0,0.0,0.0,77.0,0.0,85.0,400.2224381515854,200.11121907579272,-0.0,35.35533905932737,9.899494936611664,-0.0,-0.0,-0.0,115.96551211459378,-0.0,-0.0,-0.0,-0.0,-0.0,-0.0,-0.0,-0.0,-0.0,-0.0,-0.0,0.0,-0.0,-0.0,-0.0,-0.0,-0.0,148.4924240491737,2.828427124746214,-0.0,0.0,-0.0,-0.0,-0.0,-0.0,1.414213562373095,-0.0,-0.0,-0.0,0.0,0.0,-0.0,0.0,-0.0,-0.0,-0.0,-0.0,-0.0,-0.0,-0.0,-0.0,0.0,-0.0,-0.0,-0.0,4.242640687119285,0.0,-0.0,-0.0,-0.0,0.0,-0.0,-0.0,-0.0,5.65685424949238,-0.0,-0.0,-0.0,-0.0,-0.0,265.87214972614186,-0.0,-0.0,-0.0,-0.0,-0.0,-0.0,84.85281374238569,287.0853531617383,143.54267658086917,0.0,131.52186130069782,87.68124086713189,-0.0,-0.0,-0.0,56.5685424949238,-0.0,-0.0,-0.0,-0.0,-0.0,-0.0,-0.0,-0.0,-0.0,-0.0,-0.0,-0.0,-0.0,-0.0,-0.0,-0.0,-0.0,-0.0,-0.0,-0.0,0.0,-0.0,-0.0,-0.0,-0.0,-0.0,-0.0,-0.0,-0.0,-0.0,-0.0,-0.0,-0.0,-0.0,-0.0,0.0,-0.0,53.740115370177584,-0.0,-0.0,4.039246982335815e-14,-0.0,-0.0,0.0,-0.0,-0.0,0.0,-0.0,-0.0,-0.0,-0.0,-0.0,-0.0,-0.0,-0.0,-0.0,-0.0,-0.0,-0.0,-0.0,-0.0,36.76955262170047,-0.0,-0.0,-0.0,-0.0,96.16652224137046,-0.0,278.6000717874997,139.30003589374988,-0.0,-0.0,-0.0,-0.0,-0.0,-0.0,-0.0,-0.0,0.0,-0.0,-0.0,-0.0,76.36753236814718,-0.0,-0.0,-0.0,-0.0,-0.0,-0.0,-0.0,-0.0,91.92388155425117,-0.0,-0.0,-0.0,-0.0,-0.0,0.0,-0.0,-0.0,-0.0,-0.0,-0.0,50.91168824543142,-0.0,-0.0,-0.0,-0.0,-0.0,-0.0,-0.0,-0.0,0.0,-0.0,-0.0,-0.0,-0.0,1.5988685971745934e-14,-0.0,-0.0,-0.0,-0.0,-0.0,-0.0,-0.0,-0.0,-0.0,-0.0,-0.0,-0.0,-0.0,-0.0,42.426406871192846,141.42135623730948,-0.0,-0.0,-0.0,-0.0,-0.0,-0.0,-2.8227410969782825e-15,-0.0,-0.0,-0.0,-0.0,369.1097397793778,184.55486988968892,-0.0,-0.0,-0.0,-0.0,-0.0,-0.0,-0.0,4.242640687119285,-0.0,-0.0,-0.0,-0.0,-0.0,-0.0,-0.0,-0.0,-0.0,-0.0,-0.0,-0.0,-0.0,-0.0,-0.0,-0.0,-0.0,-0.0,-0.0,-0.0,-0.0,-0.0,-0.0,-0.0,-0.0,-0.0,-0.0,-0.0,0.0,-0.0,-0.0,-0.0,-0.0,-0.0,0.0,0.0,-0.0,-0.0,-0.0,-0.0,-0.0,38.18376618407356,-0.0,-0.0,-0.0,0.0,0.0,131.52186130069782,-0.0,-0.0,-0.0,-0.0,-0.0,-0.0,-0.0,65.05382386916237,-0.0,-0.0,-0.0,1.414213562373095,-0.0,0.0,-0.0,-0.0,280.0142853498728,36.76955262170047,-0.0,427.0924958366747,213.54624791833737,-0.0,-0.0,-0.0,-0.0,7.071067811865475,-0.0,-0.0,-0.0,0.0,-0.0,-0.0,0.0,-0.0,-0.0,-0.0,-0.0,-0.0,-0.0,-0.0,-0.0,66.46803743153546,-0.0,-0.0,-0.0,-0.0,-0.0,-0.0,-0.0,-0.0,-0.0,38.18376618407356,9.899494936611664,-0.0,-0.0,-0.0,-0.0,0.0,-0.0,0.0,-0.0,0.0,-0.0,-0.0,-0.0,-0.0,-0.0,-0.0,7.15283319788634e-15,-0.0,188.09040379562163,-0.0,-0.0,45.25483399593904,-0.0,-0.0,-0.0,-0.0,0.0,239.00209204105303,-0.0,-0.0,-0.0,-0.0,-0.0,114.55129855222069,-0.0,-0.0,-0.0,-0.0,-0.0,-0.0,-0.0,-0.0,-0.0,-0.0,407.2935059634512,203.64675298172563,0.0,-0.0,-0.0,-0.0,113.1370849898476,-0.0,-0.0,165.4629867976521,-0.0,-0.0,-0.0,-0.0,-0.0,0.0,-0.0,0.0,-0.0,-0.0,0.0,0.0,-0.0,-0.0,-0.0,-0.0,-0.0,-0.0,-0.0,-0.0,-0.0,-0.0,-0.0,-0.0,220.61731573020282,-0.0,74.95331880577403,70.71067811865474,-0.0,0.0,-0.0,-0.0,-0.0,-0.0,-0.0,0.0,-0.0,11.31370849898476,-0.0,2.5666048533592156e-14,-0.0,2.82842712474619,-0.0,0.0,-0.0,-0.0,-0.0,-0.0,-0.0,0.0,-0.0,38.18376618407355,123.03657992645925,-0.0,-0.0,-0.0,134.350288425444,-0.0,-0.0,-0.0,124.45079348883235,-0.0,-0.0,-0.0,-0.0,-0.0,-0.0,319.6122650963196,159.80613254815984,-0.0,-0.0,-0.0,-0.0,-0.0,-0.0,-0.0,240.41630560342614,0.0,0.0,4.242640687119285,0.0,141.42135623730957,-0.0,-0.0,-0.0,50.911688245431385,-0.0,-0.0,-0.0,-0.0,-0.0,-0.0,-0.0,-0.0,-0.0,-0.0,-0.0,-0.0,-0.0,-0.0,-0.0,-0.0,-0.0,-0.0,-0.0,-0.0,-0.0,-0.0,-0.0,-0.0,-0.0,-0.0,0.0,-0.0,-0.0,-0.0,-0.0,0.0,-0.0,-0.0,-0.0,-0.0,-0.0,-0.0,-0.0,-0.0,-0.0,-0.0,-0.0,-0.0,-0.0,-0.0,-0.0,-0.0,-0.0,-0.0,-0.0,19.798989873223327,-0.0,-0.0,-0.0,-0.0,-0.0,-0.0,182.43354954612926,91.21677477306464,-0.0,-0.0,-0.0,-0.0,1.414213562373095,-0.0,-0.0,-0.0,-0.0,-0.0,-0.0,-0.0,-0.0,0.0,-0.0,0.0,-0.0,-0.0,-0.0,0.0,-0.0,-0.0,-0.0,-0.0,-0.0,-0.0,-0.0,-0.0,-0.0,-0.0,-0.0,-0.0,-0.0,132.93607486307093,-0.0,-0.0,-0.0,-0.0,-0.0,-0.0,-0.0,-0.0,-0.0,-0.0,-0.0,-0.0,-0.0,-0.0,0.0,-0.0,-0.0,0.0,-0.0,0.0,-0.0,-0.0,-0.0,-0.0,73.53910524340094,-0.0,-0.0,-0.0,-0.0,-0.0,-0.0,-0.0,-0.0,-0.0,-0.0,-0.0,-0.0,-0.0,-0.0,-0.0,-0.0,371.938166904124,185.96908345206202,-0.0,-0.0,-0.0,-0.0,-0.0,-0.0,-0.0,-0.0,-0.0,-0.0,-0.0,-0.0,-0.0,-0.0,-0.0,-0.0,-0.0,0.0,-0.0,-0.0,-0.0,1.414213562373095,-0.0,-0.0,-0.0,-0.0,-0.0,-0.0,-0.0,-0.0,-0.0,-0.0,-0.0,-0.0,-0.0,-0.0,-0.0,-0.0,0.0,-0.0,0.0,-0.0,-0.0,0.0,-0.0,209.30360723121805,-0.0,4.2075489399331406e-15,-0.0,137.17871555019022,-0.0,0.0,-0.0,-0.0,-0.0,-0.0,5.65685424949238,0.0,-0.0,268.7005768508879,-0.0,-0.0,-0.0,-0.0,-0.0,-0.0,-0.0,-0.0,-0.0,-0.0,-0.0,-0.0,-0.0,7.071067811865475,-0.0,120.20815280171307,60.10407640085654,-0.0,-0.0,-0.0,-0.0,-0.0,-0.0,-0.0,-0.0,-0.0,0.0,-0.0,-0.0,-0.0,-0.0,0.0,-0.0,-0.0,-0.0,-0.0,-0.0,-0.0,-0.0,-0.0,-0.0,-0.0,-0.0,0.0,-0.0,-0.0,-0.0,-0.0,-0.0,-0.0,-0.0,-0.0,-0.0,-0.0,-0.0,-0.0,-0.0,-0.0,-0.0,0.0,-0.0,-0.0,-0.0,-0.0,-0.0,-0.0,-0.0,-0.0,-0.0,7.071067811865475,-0.0,-0.0,-0.0,-0.0,-0.0,-0.0,-0.0,-0.0,-0.0,-0.0,-0.0,-0.0,-0.0,-0.0,-0.0,-0.0,-0.0,-0.0,-0.0,-0.0,108.8944443027283,-0.0]

Cover cuts applied:  37
Flow cuts applied:  10
Mixed integer rounding cuts applied:  18
Zero-half cuts applied:  3
Lift and project cuts applied:  6
Cone linearizations applied:  286

Root node processing (before b&c):
  Real time             =    1.94 sec. (1610.09 ticks)
Sequential b&c:
  Real time             =    2.59 sec. (2577.40 ticks)
                          ------------
Total (root+branch&cut) =    4.53 sec. (4187.49 ticks)
